Using license file /home/benedond/gurobi.lic
Using gurobi.env file
Set parameter Threads to value 1
Academic license - for non-commercial use only
Changed value of parameter TimeLimit to 300.0
   Prev: inf  Min: 0.0  Max: inf  Default: inf
Gurobi Optimizer version 9.0.1 build v9.0.1rc0 (linux64)
Optimize a model with 4230 rows, 4095 columns and 16333 nonzeros
Model fingerprint: 0xa0040aba
Variable types: 45 continuous, 4050 integer (4050 binary)
Coefficient statistics:
  Matrix range     [1e+00, 5e+02]
  Objective range  [4e+01, 5e+02]
  Bounds range     [1e+00, 1e+00]
  RHS range        [1e+00, 2e+03]
Presolve removed 89 rows and 89 columns
Presolve time: 0.37s
Presolved: 4141 rows, 4006 columns, 15977 nonzeros
Variable types: 45 continuous, 3961 integer (3961 binary)

Root relaxation: objective 8.336000e+03, 700 iterations, 0.03 seconds

    Nodes    |    Current Node    |     Objective Bounds      |     Work
 Expl Unexpl |  Obj  Depth IntInf | Incumbent    BestBd   Gap | It/Node Time

     0     0 8336.00000    0   75          - 8336.00000      -     -    0s
H    0     0                    7804.0000000 8336.00000  6.82%     -    0s
     0     0 8336.00000    0   51 7804.00000 8336.00000  6.82%     -    1s
     0     0 8336.00000    0   44 7804.00000 8336.00000  6.82%     -    5s
H    0     0                    8000.0000000 8336.00000  4.20%     -    5s
     0     0 8336.00000    0   59 8000.00000 8336.00000  4.20%     -    6s
     0     0 8336.00000    0   58 8000.00000 8336.00000  4.20%     -    6s
     0     0 8336.00000    0   57 8000.00000 8336.00000  4.20%     -    6s
     0     0 8336.00000    0   61 8000.00000 8336.00000  4.20%     -    6s
     0     0 8336.00000    0   55 8000.00000 8336.00000  4.20%     -    6s
     0     0 8336.00000    0   48 8000.00000 8336.00000  4.20%     -    6s
H    0     0                    8064.0000000 8336.00000  3.37%     -    6s
     0     0 8336.00000    0   48 8064.00000 8336.00000  3.37%     -    6s
     0     0 8336.00000    0   36 8064.00000 8336.00000  3.37%     -    6s
     0     0 8336.00000    0   26 8064.00000 8336.00000  3.37%     -    6s
     0     0 8336.00000    0   27 8064.00000 8336.00000  3.37%     -    6s
     0     0 8336.00000    0   24 8064.00000 8336.00000  3.37%     -    7s
     0     0 8336.00000    0   19 8064.00000 8336.00000  3.37%     -    7s
     0     2 8336.00000    0   15 8064.00000 8336.00000  3.37%     -    7s
H   27     9                    8236.0000000 8336.00000  1.21%   172    9s
H   54     2                    8336.0000000 8336.00000  0.00%   170   10s

Cutting planes:
  MIR: 2
  Relax-and-lift: 6

Explored 55 nodes (28584 simplex iterations) in 10.42 seconds
Thread count was 1 (of 4 available processors)

Solution count 5: 8336 8236 8064 ... 7804

Optimal solution found (tolerance 1.00e-04)
Best objective 8.336000000000e+03, best bound 8.336000000000e+03, gap 0.0000%
